db/data/196451234010054309823100113772413218259.z3.out
-------------------
2500.110738608
